# Solution for model MIP
# Objective value = -1.9959999999999736e+03
B0(11) 0
B1(11) 0
B2(11) 0
B3(11) 0
B4(11) 0
B5(11) 0
B6(11) 1
B7(11) 0
B8(11) 0
B9(11) 0
B10(11) 0
B11(11) 0
B12(11) 0
B13(11) 1
C14(30) -1.9959999999999736e+03
C15(1) 6.4006404789470384e-01
C16(1) 4.1509416997527415e-02
C17(1) 5.4607020597528100e-01
C18(1) 6.4006404789470384e-01
C19(1) 4.1509416997527415e-02
C20(1) 5.4607020597528100e-01
C21(1) 6.4006404789470384e-01
C22(1) 4.1509416997527415e-02
C23(1) 5.4607020597528100e-01
C24(1) 6.4006404789470384e-01
C25(1) 4.1509416997527415e-02
C26(1) 5.4607020597528100e-01
C27(1) 6.4006404789470384e-01
C28(1) 4.1509416997527415e-02
C29(1) 5.4607020597528100e-01
C30(1) 6.4006404789470384e-01
C31(1) 4.1509416997527415e-02
C32(1) 5.4607020597528100e-01
C33(1) 6.4006404789470384e-01
C34(1) 4.1509416997527415e-02
C35(1) 5.4607020597528100e-01
C36(2) 0
C37(2) 0
C38(2) 0
C39(1) 6.4006404789470384e-01
C40(1) 4.1509416997527415e-02
C41(1) 5.4607020597528100e-01
C42(1) 6.4006404789470384e-01
C43(1) 4.1509416997527415e-02
C44(1) 5.4607020597528100e-01
C45(1) 6.4006404789470384e-01
C46(1) 4.1509416997527415e-02
C47(1) 5.4607020597528100e-01
C48(1) 6.4006404789470384e-01
C49(1) 4.1509416997527415e-02
C50(1) 5.4607020597528100e-01
C51(2) 0
C52(2) 0
C53(2) 0
C54(2) 0
C55(2) 0
C56(2) 0
C57(1) 6.4006404789470384e-01
C58(1) 4.1509416997527415e-02
C59(1) 5.4607020597528100e-01
C60(2) 0
C61(2) 0
C62(2) 0
C63(1) 6.4006404789470384e-01
C64(1) 4.1509416997527415e-02
C65(1) 5.4607020597528100e-01
C66(1) 6.4006404789470384e-01
C67(1) 4.1509416997527415e-02
C68(1) 5.4607020597528100e-01
C69(2) 0
C70(2) 0
C71(2) 0
C72(1) 6.4006404789470384e-01
C73(1) 4.1509416997527415e-02
C74(1) 5.4607020597528100e-01
C75(2) 0
C76(2) 0
C77(2) 0
C78(2) 0
C79(2) 0
C80(2) 0
C81(1) 6.4006404789470384e-01
C82(1) 4.1509416997527415e-02
C83(1) 5.4607020597528100e-01
C84(1) 6.4006404789470384e-01
C85(1) 4.1509416997527415e-02
C86(1) 5.4607020597528100e-01
C87(2) 0
C88(2) 0
C89(2) 0
C90(1) 6.4006404789470384e-01
C91(1) 4.1509416997527415e-02
C92(1) 5.4607020597528100e-01
C93(2) 0
C94(2) 0
C95(2) 0
C96(1) 6.4006404789470384e-01
C97(1) 4.1509416997527415e-02
C98(1) 5.4607020597528100e-01
C99(1) 6.4006404789470384e-01
C100(1) 4.1509416997527415e-02
C101(1) 5.4607020597528100e-01
C102(2) 0
C103(2) 0
C104(2) 0
C105(4) 1
C106(4) 1
C107(4) 1
C108(4) 1
C109(4) 1
C110(4) 1
C111(4) 1
C112(5) 0
C113(4) 1
C114(4) 1
C115(4) 0
C116(4) 0
C117(4) 0
C118(4) 0
C119(4) 0
C120(4) 0
C121(4) 0
C122(5) 0
C123(4) 0
C124(4) 0
C125(4) 0
C126(4) 0
C127(4) 0
C128(4) 0
C129(4) 0
C130(4) 0
C131(4) 0
C132(5) 0
C133(4) 0
C134(4) 0
C135(4) 0
C136(4) 0
C137(4) 0
C138(4) 0
C139(4) 0
C140(4) 0
C141(4) 0
C142(5) 0
C143(4) 0
C144(4) 0
C145(4) 0
C146(4) 0
C147(4) 0
C148(4) 0
C149(4) 0
C150(4) 0
C151(4) 0
C152(5) 0
C153(4) 0
C154(4) 0
C155(4) 0
C156(4) 0
C157(4) 0
C158(4) 0
C159(4) 0
C160(4) 0
C161(4) 0
C162(5) 0
C163(4) 0
C164(4) 0
C165(1) 0
C166(1) 0
C167(1) 0
C168(1) 0
C169(1) 0
C170(1) 0
C171(1) 0
C172(2) 1
C173(1) 0
C174(1) 0
C175(4) 1
C176(4) 1
C177(5) 0
C178(5) 0
C179(4) 1
C180(5) 0
C181(4) 1
C182(4) 1
C183(5) 0
C184(4) 1
C185(4) 0
C186(4) 0
C187(5) 0
C188(5) 0
C189(4) 0
C190(5) 0
C191(4) 0
C192(4) 0
C193(5) 0
C194(4) 0
C195(4) 0
C196(4) 0
C197(5) 0
C198(5) 0
C199(4) 0
C200(5) 0
C201(4) 0
C202(4) 0
C203(5) 0
C204(4) 0
C205(4) 0
C206(4) 0
C207(5) 0
C208(5) 0
C209(4) 0
C210(5) 0
C211(4) 0
C212(4) 0
C213(5) 0
C214(4) 0
C215(4) 0
C216(4) 0
C217(5) 0
C218(5) 0
C219(4) 0
C220(5) 0
C221(4) 0
C222(4) 0
C223(5) 0
C224(4) 0
C225(4) 0
C226(4) 0
C227(5) 0
C228(5) 0
C229(4) 0
C230(5) 0
C231(4) 0
C232(4) 0
C233(5) 0
C234(4) 0
C235(1) 0
C236(1) 0
C237(2) 1
C238(2) 1
C239(1) 0
C240(2) 1
C241(1) 0
C242(1) 0
C243(2) 1
C244(1) 0
C245(5) 0
C246(5) 0
C247(4) 1
C248(4) 1
C249(5) 0
C250(4) 1
C251(5) 0
C252(4) 1
C253(4) 1
C254(5) 0
C255(5) 0
C256(5) 0
C257(4) 0
C258(4) 0
C259(5) 0
C260(4) 0
C261(5) 0
C262(4) 0
C263(4) 0
C264(5) 0
C265(5) 0
C266(5) 0
C267(4) 0
C268(4) 0
C269(5) 0
C270(4) 0
C271(5) 0
C272(4) 0
C273(4) 0
C274(5) 0
C275(5) 0
C276(5) 0
C277(4) 0
C278(4) 0
C279(5) 0
C280(4) 0
C281(5) 0
C282(4) 0
C283(4) 0
C284(5) 0
C285(5) 0
C286(5) 0
C287(4) 0
C288(4) 0
C289(5) 0
C290(4) 0
C291(5) 0
C292(4) 0
C293(4) 0
C294(5) 0
C295(5) 0
C296(5) 0
C297(4) 0
C298(4) 0
C299(5) 0
C300(4) 0
C301(5) 0
C302(4) 0
C303(4) 0
C304(5) 0
C305(2) 1
C306(2) 1
C307(1) 0
C308(1) 0
C309(2) 1
C310(1) 0
C311(2) 1
C312(1) 0
C313(1) 0
C314(2) 1
C315(2) 0
C316(2) 0
C317(2) 0
C318(2) 0
C319(2) 0
C320(2) 0
C321(2) 0
C322(2) 0
C323(2) 0
C324(2) 0
C325(2) 0
C326(2) 0
C327(2) 0
C328(2) 0
C329(2) 0
C330(2) 0
C331(2) 0
C332(2) 0
C333(2) 0
C334(2) 0
C335(2) 0
C336(2) 0
C337(2) 0
C338(2) 0
C339(2) 0
C340(2) 0
C341(2) 0
C342(2) 0
C343(2) 0
C344(2) 0
C345(2) 0
C346(2) 0
C347(2) 0
C348(2) 0
C349(2) 0
C350(2) 0
C351(2) 0
C352(2) 0
C353(2) 0
C354(2) 0
C355(2) 0
C356(2) 0
C357(2) 0
C358(2) 0
C359(2) 0
C360(2) 0
C361(2) 0
C362(2) 0
C363(2) 0
C364(2) 0
C365(2) 0
C366(2) 0
C367(2) 0
C368(2) 0
C369(2) 0
C370(2) 0
C371(2) 0
C372(2) 0
C373(2) 0
C374(2) 0
C375(2) 0
C376(2) 0
C377(2) 0
C378(2) 0
C379(2) 0
C380(2) 0
C381(2) 0
C382(2) 11
C383(2) 0
C384(2) 0
C385(2) 0
C386(2) 0
C387(2) 0
C388(2) 0
C389(2) 0
C390(2) 0
C391(2) 0
C392(2) 0
C393(2) 0
C394(2) 0
C395(2) 0
C396(2) 0
C397(2) 0
C398(2) 0
C399(2) 0
C400(2) 0
C401(2) 0
C402(2) 0
C403(2) 0
C404(2) 0
C405(2) 0
C406(2) 0
C407(2) 0
C408(2) 0
C409(2) 0
C410(2) 0
C411(2) 0
C412(2) 0
C413(2) 0
C414(2) 0
C415(2) 0
C416(2) 0
C417(2) 0
C418(2) 0
C419(2) 0
C420(2) 0
C421(2) 0
C422(2) 0
C423(2) 0
C424(2) 0
C425(2) 0
C426(2) 0
C427(2) 0
C428(2) 0
C429(2) 0
C430(2) 0
C431(2) 0
C432(2) 0
C433(2) 0
C434(2) 0
C435(2) 0
C436(2) 0
C437(2) 0
C438(2) 0
C439(2) 0
C440(2) 0
C441(2) 0
C442(2) 0
C443(2) 0
C444(2) 0
C445(2) 0
C446(2) 0
C447(2) 57
C448(2) 29
C449(2) 0
C450(2) 15
C451(2) 0
C452(2) 0
C453(2) 20
C454(2) 0
C455(2) 0
C456(2) 0
C457(2) 0
C458(2) 0
C459(2) 0
C460(2) 0
C461(2) 0
C462(2) 0
C463(2) 0
C464(2) 0
C465(2) 0
C466(2) 0
C467(2) 0
C468(2) 0
C469(2) 0
C470(2) 0
C471(2) 0
C472(2) 0
C473(2) 0
C474(2) 0
C475(2) 0
C476(2) 0
C477(2) 0
C478(2) 0
C479(2) 0
C480(2) 0
C481(2) 0
C482(2) 0
C483(2) 0
C484(2) 0
C485(2) 0
C486(2) 0
C487(2) 0
C488(2) 0
C489(2) 0
C490(2) 0
C491(2) 0
C492(2) 0
C493(2) 0
C494(2) 0
C495(2) 0
C496(2) 0
C497(2) 0
C498(2) 0
C499(2) 0
C500(2) 0
C501(2) 0
C502(2) 0
C503(2) 0
C504(2) 0
C505(2) 0
C506(2) 0
C507(2) 0
C508(2) 0
C509(2) 0
C510(2) 0
C511(2) 0
C512(2) 0
C513(2) 0
C514(2) 0
C515(2) 24
C516(2) 115
C517(2) 0
C518(2) 0
C519(2) 25
C520(2) 0
C521(2) 22
C522(2) 0
C523(2) 0
C524(2) 58
C525(5) 0
C526(5) 0
C527(5) 0
C528(5) 0
C529(5) 0
C530(5) 0
C531(5) 0
C532(5) 0
C533(5) 0
C534(5) 0
C535(5) 0
C536(5) 0
C537(5) 0
C538(5) 0
C539(5) 0
C540(5) 0
C541(5) 0
C542(5) 0
C543(5) 0
C544(5) 0
C545(5) 0
C546(5) 0
C547(5) 0
C548(5) 0
C549(5) 0
C550(5) 0
C551(5) 0
C552(5) 0
C553(5) 0
C554(5) 0
C555(7) 0
C556(7) 0
C557(7) 0
C558(7) 0
C559(7) 0
C560(7) 0
C561(7) 0
C562(7) 0
C563(7) 0
C564(7) 0
C565(7) 0
C566(7) 0
C567(7) 0
C568(7) 0
C569(7) 0
C570(7) 0
C571(7) 0
C572(7) 0
C573(7) 0
C574(7) 0
C575(7) 0
C576(7) 0
C577(7) 0
C578(7) 0
C579(7) 0
C580(7) 0
C581(7) 0
C582(7) 0
C583(7) 0
C584(7) 0
C585(3) 0
C586(3) 0
C587(3) 0
C588(3) 0
C589(3) 0
C590(3) 0
C591(3) 0
C592(3) 11
C593(3) 0
C594(3) 0
C595(5) 0
C596(5) 0
C597(5) 0
C598(5) 0
C599(5) 0
C600(5) 0
C601(5) 0
C602(5) 0
C603(5) 0
C604(5) 0
C605(5) 0
C606(5) 0
C607(5) 0
C608(5) 0
C609(5) 0
C610(5) 0
C611(5) 0
C612(5) 0
C613(5) 0
C614(5) 0
C615(5) 0
C616(5) 0
C617(5) 0
C618(5) 0
C619(5) 0
C620(5) 0
C621(5) 0
C622(5) 0
C623(5) 0
C624(5) 0
C625(7) 0
C626(7) 0
C627(7) 0
C628(7) 0
C629(7) 0
C630(7) 0
C631(7) 0
C632(7) 0
C633(7) 0
C634(7) 0
C635(7) 0
C636(7) 0
C637(7) 0
C638(7) 0
C639(7) 0
C640(7) 0
C641(7) 0
C642(7) 0
C643(7) 0
C644(7) 0
C645(7) 0
C646(7) 0
C647(7) 0
C648(7) 0
C649(7) 0
C650(7) 0
C651(7) 0
C652(7) 0
C653(7) 0
C654(7) 0
C655(3) 0
C656(3) 0
C657(3) 57
C658(3) 29
C659(3) 0
C660(3) 15
C661(3) 0
C662(3) 0
C663(3) 20
C664(3) 0
C665(5) 0
C666(5) 0
C667(5) 0
C668(5) 0
C669(5) 0
C670(5) 0
C671(5) 0
C672(5) 0
C673(5) 0
C674(5) 0
C675(5) 0
C676(5) 0
C677(5) 0
C678(5) 0
C679(5) 0
C680(5) 0
C681(5) 0
C682(5) 0
C683(5) 0
C684(5) 0
C685(5) 0
C686(5) 0
C687(5) 0
C688(5) 0
C689(5) 0
C690(5) 0
C691(5) 0
C692(5) 0
C693(5) 0
C694(5) 0
C695(7) 0
C696(7) 0
C697(7) 0
C698(7) 0
C699(7) 0
C700(7) 0
C701(7) 0
C702(7) 0
C703(7) 0
C704(7) 0
C705(7) 0
C706(7) 0
C707(7) 0
C708(7) 0
C709(7) 0
C710(7) 0
C711(7) 0
C712(7) 0
C713(7) 0
C714(7) 0
C715(7) 0
C716(7) 0
C717(7) 0
C718(7) 0
C719(7) 0
C720(7) 0
C721(7) 0
C722(7) 0
C723(7) 0
C724(7) 0
C725(3) 24
C726(3) 115
C727(3) 0
C728(3) 0
C729(3) 25
C730(3) 0
C731(3) 22
C732(3) 0
C733(3) 0
C734(3) 58
C735(5) 0
C736(5) 0
C737(5) 0
C738(5) 0
C739(5) 0
C740(5) 0
C741(5) 0
C742(5) 0
C743(5) 0
C744(5) 0
C745(5) 0
C746(5) 0
C747(5) 0
C748(5) 0
C749(5) 0
C750(5) 0
C751(5) 0
C752(5) 0
C753(5) 0
C754(5) 0
C755(5) 0
C756(5) 0
C757(5) 0
C758(5) 0
C759(5) 0
C760(5) 0
C761(5) 0
C762(5) 0
C763(5) 0
C764(5) 0
C765(7) 0
C766(7) 0
C767(7) 0
C768(7) 0
C769(7) 0
C770(7) 0
C771(7) 0
C772(7) 0
C773(7) 0
C774(7) 0
C775(7) 0
C776(7) 0
C777(7) 0
C778(7) 0
C779(7) 0
C780(7) 0
C781(7) 0
C782(7) 0
C783(7) 0
C784(7) 0
C785(7) 0
C786(7) 0
C787(7) 0
C788(7) 0
C789(7) 0
C790(7) 0
C791(7) 0
C792(7) 0
C793(7) 0
C794(7) 0
C795(3) 0
C796(3) 0
C797(3) 0
C798(3) 0
C799(3) 0
C800(3) 0
C801(3) 0
C802(3) 11
C803(3) 0
C804(3) 0
C805(5) 0
C806(5) 0
C807(5) 0
C808(5) 0
C809(5) 0
C810(5) 0
C811(5) 0
C812(5) 0
C813(5) 0
C814(5) 0
C815(5) 0
C816(5) 0
C817(5) 0
C818(5) 0
C819(5) 0
C820(5) 0
C821(5) 0
C822(5) 0
C823(5) 0
C824(5) 0
C825(5) 0
C826(5) 0
C827(5) 0
C828(5) 0
C829(5) 0
C830(5) 0
C831(5) 0
C832(5) 0
C833(5) 0
C834(5) 0
C835(7) 0
C836(7) 0
C837(7) 0
C838(7) 0
C839(7) 0
C840(7) 0
C841(7) 0
C842(7) 0
C843(7) 0
C844(7) 0
C845(7) 0
C846(7) 0
C847(7) 0
C848(7) 0
C849(7) 0
C850(7) 0
C851(7) 0
C852(7) 0
C853(7) 0
C854(7) 0
C855(7) 0
C856(7) 0
C857(7) 0
C858(7) 0
C859(7) 0
C860(7) 0
C861(7) 0
C862(7) 0
C863(7) 0
C864(7) 0
C865(3) 0
C866(3) 0
C867(3) 57
C868(3) 29
C869(3) 0
C870(3) 15
C871(3) 0
C872(3) 0
C873(3) 20
C874(3) 0
C875(5) 0
C876(5) 0
C877(5) 0
C878(5) 0
C879(5) 0
C880(5) 0
C881(5) 0
C882(5) 0
C883(5) 0
C884(5) 0
C885(5) 0
C886(5) 0
C887(5) 0
C888(5) 0
C889(5) 0
C890(5) 0
C891(5) 0
C892(5) 0
C893(5) 0
C894(5) 0
C895(5) 0
C896(5) 0
C897(5) 0
C898(5) 0
C899(5) 0
C900(5) 0
C901(5) 0
C902(5) 0
C903(5) 0
C904(5) 0
C905(7) 0
C906(7) 0
C907(7) 0
C908(7) 0
C909(7) 0
C910(7) 0
C911(7) 0
C912(7) 0
C913(7) 0
C914(7) 0
C915(7) 0
C916(7) 0
C917(7) 0
C918(7) 0
C919(7) 0
C920(7) 0
C921(7) 0
C922(7) 0
C923(7) 0
C924(7) 0
C925(7) 0
C926(7) 0
C927(7) 0
C928(7) 0
C929(7) 0
C930(7) 0
C931(7) 0
C932(7) 0
C933(7) 0
C934(7) 0
C935(3) 24
C936(3) 115
C937(3) 0
C938(3) 0
C939(3) 25
C940(3) 0
C941(3) 22
C942(3) 0
C943(3) 0
C944(3) 58
C945(1) 0
C946(1) 0
C947(1) 0
C948(1) 0
C949(1) 0
C950(1) 0
C951(1) 0
C952(1) 0
C953(1) 0
C954(3) 0
C955(3) 0
C956(3) 0
C957(3) 0
C958(3) 0
C959(3) 0
C960(2) 0
C961(2) 0
C962(2) 0
C963(3) 0
C964(3) 0
C965(3) 0
C966(3) 0
C967(3) 0
C968(3) 0
C969(2) 0
C970(2) 0
C971(2) 0
C972(1) 0
C973(1) 0
C974(1) 0
C975(1) 0
C976(1) 0
C977(1) 0
C978(1) 0
C979(1) 0
C980(1) 0
C981(6) 0
C982(6) 0
C983(6) 0
C984(6) 0
C985(6) 0
C986(6) 0
C987(6) 0
C988(6) 0
C989(6) 0
C990(6) 0
C991(6) 0
C992(6) 0
C993(6) 0
C994(6) 0
C995(6) 0
C996(6) 0
C997(6) 0
C998(6) 0
B999(1) 0
B1000(1) 0
B1001(1) 0
B1002(1) 0
B1003(1) 0
B1004(1) 0
B1005(1) 0
B1006(1) 0
B1007(1) 0
B1008(1) 0
B1009(1) 0
B1010(1) 0
B1011(1) 0
B1012(1) 0
B1013(1) 0
B1014(1) 0
B1015(1) 0
B1016(1) 0
B1017(0) 0
B1018(0) 0
B1019(0) 0
B1020(0) 0
B1021(0) 0
B1022(0) 0
B1023(0) 0
B1024(0) 0
B1025(0) 0
B1026(0) 0
B1027(0) 0
B1028(0) 0
B1029(0) 0
B1030(0) 0
B1031(0) 0
B1032(0) 0
B1033(0) 0
B1034(0) 0
C1035(3) 0
C1036(2) 0
C1037(3) 0
C1038(2) 0
C1039(3) 0
C1040(2) 0
